p cnf 91 193
c -target(0_0) 
-1 0
c -target(0_1) 
-2 0
c -target(0_2) 
-3 0
c -target(1_0) 
-4 0
c -target(1_1) 
-5 0
c -target(1_2) 
-6 0
c -target(2_0) 
-7 0
c -target(2_1) 
-8 0
c -target(2_2) 
-9 0
c -target(3_0) 
-10 0
c target(3_1) 
11 0
c -target(3_2) 
-12 0
c -target(4_0) 
-13 0
c -target(4_1) 
-14 0
c -target(4_2) 
-15 0
c -player(0_0,0) 
-16 0
c -player(0_1,0) 
-17 0
c -player(0_2,0) 
-18 0
c -player(1_0,0) 
-19 0
c player(1_1,0) 
20 0
c -player(1_2,0) 
-21 0
c -player(2_0,0) 
-22 0
c -player(2_1,0) 
-23 0
c -player(2_2,0) 
-24 0
c -player(3_0,0) 
-25 0
c -player(3_1,0) 
-26 0
c -player(3_2,0) 
-27 0
c -player(4_0,0) 
-28 0
c -player(4_1,0) 
-29 0
c -player(4_2,0) 
-30 0
c -at(box1,0_0,0) 
-31 0
c -at(box1,0_1,0) 
-32 0
c -at(box1,0_2,0) 
-33 0
c -at(box1,1_0,0) 
-34 0
c -at(box1,1_1,0) 
-35 0
c -at(box1,1_2,0) 
-36 0
c -at(box1,2_0,0) 
-37 0
c at(box1,2_1,0) 
38 0
c -at(box1,2_2,0) 
-39 0
c -at(box1,3_0,0) 
-40 0
c -at(box1,3_1,0) 
-41 0
c -at(box1,3_2,0) 
-42 0
c -at(box1,4_0,0) 
-43 0
c -at(box1,4_1,0) 
-44 0
c -at(box1,4_2,0) 
-45 0
c -in_target(box1,0) 
-46 0
c -empty(0_0,0) 
-47 0
c -empty(0_1,0) 
-48 0
c -empty(0_2,0) 
-49 0
c -empty(1_0,0) 
-50 0
c -empty(1_1,0) 
-51 0
c -empty(1_2,0) 
-52 0
c -empty(2_0,0) 
-53 0
c -empty(2_1,0) 
-54 0
c -empty(2_2,0) 
-55 0
c -empty(3_0,0) 
-56 0
c empty(3_1,0) 
57 0
c -empty(3_2,0) 
-58 0
c -empty(4_0,0) 
-59 0
c -empty(4_1,0) 
-60 0
c -empty(4_2,0) 
-61 0
c in_target(box1,1) 
62 0
c -empty(0_0,1) 
-63 0
c -empty(0_1,1) 
-64 0
c -empty(0_2,1) 
-65 0
c -empty(1_0,1) 
-66 0
c empty(1_1,1) player(1_1,1) at(box1,1_1,1) 
67 68 69 0
c -empty(1_2,1) 
-70 0
c -empty(2_0,1) 
-71 0
c empty(2_1,1) player(2_1,1) at(box1,2_1,1) 
72 73 74 0
c -empty(2_2,1) 
-75 0
c -empty(3_0,1) 
-76 0
c empty(3_1,1) player(3_1,1) at(box1,3_1,1) 
77 78 79 0
c -empty(3_2,1) 
-80 0
c -empty(4_0,1) 
-81 0
c -empty(4_1,1) 
-82 0
c -empty(4_2,1) 
-83 0
c -player(1_1,1) -player(2_1,1) 
-68 -73 0
c -player(1_1,1) -player(3_1,1) 
-68 -78 0
c -player(2_1,1) -player(3_1,1) 
-73 -78 0
c -at(box1,1_1,1) -at(box1,2_1,1) 
-69 -74 0
c -at(box1,1_1,1) -at(box1,3_1,1) 
-69 -79 0
c -at(box1,2_1,1) -at(box1,3_1,1) 
-74 -79 0
c -player(1_1,1) -empty(1_1,1) 
-68 -67 0
c -player(1_1,1) -at(box1,1_1,1) 
-68 -69 0
c -empty(1_1,1) -at(box1,1_1,1) 
-67 -69 0
c -player(2_1,1) -empty(2_1,1) 
-73 -72 0
c -player(2_1,1) -at(box1,2_1,1) 
-73 -74 0
c -empty(2_1,1) -at(box1,2_1,1) 
-72 -74 0
c -player(3_1,1) -empty(3_1,1) 
-78 -77 0
c -player(3_1,1) -at(box1,3_1,1) 
-78 -79 0
c -empty(3_1,1) -at(box1,3_1,1) 
-77 -79 0
c -move(1_1,2_1,1) player(1_1,0) 
-84 20 0
c -move(1_1,2_1,1) empty(2_1,0) 
-84 54 0
c -move(1_1,2_1,1) player(2_1,1) 
-84 73 0
c -move(1_1,2_1,1) empty(1_1,1) 
-84 67 0
c -move(1_1,2_1,1) -empty(2_1,1) 
-84 -72 0
c -move(1_1,2_1,1) -in_target(box1,1) 
-84 -62 0
c -move(2_1,1_1,1) player(2_1,0) 
-85 23 0
c -move(2_1,1_1,1) empty(1_1,0) 
-85 51 0
c -move(2_1,1_1,1) player(1_1,1) 
-85 68 0
c -move(2_1,1_1,1) empty(2_1,1) 
-85 72 0
c -move(2_1,1_1,1) -empty(1_1,1) 
-85 -67 0
c -move(2_1,1_1,1) -in_target(box1,1) 
-85 -62 0
c -move(2_1,3_1,1) player(2_1,0) 
-86 23 0
c -move(2_1,3_1,1) empty(3_1,0) 
-86 57 0
c -move(2_1,3_1,1) player(3_1,1) 
-86 78 0
c -move(2_1,3_1,1) empty(2_1,1) 
-86 72 0
c -move(2_1,3_1,1) -empty(3_1,1) 
-86 -77 0
c -move(2_1,3_1,1) -in_target(box1,1) 
-86 -62 0
c -move(3_1,2_1,1) player(3_1,0) 
-87 26 0
c -move(3_1,2_1,1) empty(2_1,0) 
-87 54 0
c -move(3_1,2_1,1) player(2_1,1) 
-87 73 0
c -move(3_1,2_1,1) empty(3_1,1) 
-87 77 0
c -move(3_1,2_1,1) -empty(2_1,1) 
-87 -72 0
c -move(3_1,2_1,1) -in_target(box1,1) 
-87 -62 0
c -push(box1,1_1,2_1,3_1,1) empty(3_1,0) 
-88 57 0
c -push(box1,1_1,2_1,3_1,1) player(1_1,0) 
-88 20 0
c -push(box1,1_1,2_1,3_1,1) at(box1,2_1,0) 
-88 38 0
c -push(box1,1_1,2_1,3_1,1) -target(3_1) 
-88 -11 0
c -push(box1,1_1,2_1,3_1,1) player(2_1,1) 
-88 73 0
c -push(box1,1_1,2_1,3_1,1) at(box1,3_1,1) 
-88 79 0
c -push(box1,1_1,2_1,3_1,1) empty(1_1,1) 
-88 67 0
c -push(box1,1_1,2_1,3_1,1) -empty(3_1,1) 
-88 -77 0
c -push(box1,1_1,2_1,3_1,1) -player(1_1,1) 
-88 -68 0
c -push(box1,1_1,2_1,3_1,1) -at(box1,2_1,1) 
-88 -74 0
c -push(box1,1_1,2_1,3_1,1) -in_target(box1,1) 
-88 -62 0
c -push(box1,1_1,2_1,3_1,1) -in_target(box1,0) 
-88 -46 0
c -push(box1,3_1,2_1,1_1,1) empty(1_1,0) 
-89 51 0
c -push(box1,3_1,2_1,1_1,1) player(3_1,0) 
-89 26 0
c -push(box1,3_1,2_1,1_1,1) at(box1,2_1,0) 
-89 38 0
c -push(box1,3_1,2_1,1_1,1) -target(1_1) 
-89 -5 0
c -push(box1,3_1,2_1,1_1,1) player(2_1,1) 
-89 73 0
c -push(box1,3_1,2_1,1_1,1) at(box1,1_1,1) 
-89 69 0
c -push(box1,3_1,2_1,1_1,1) empty(3_1,1) 
-89 77 0
c -push(box1,3_1,2_1,1_1,1) -empty(1_1,1) 
-89 -67 0
c -push(box1,3_1,2_1,1_1,1) -player(3_1,1) 
-89 -78 0
c -push(box1,3_1,2_1,1_1,1) -at(box1,2_1,1) 
-89 -74 0
c -push(box1,3_1,2_1,1_1,1) -in_target(box1,1) 
-89 -62 0
c -push(box1,3_1,2_1,1_1,1) -in_target(box1,0) 
-89 -46 0
c -push_t(box1,1_1,2_1,3_1,1) empty(3_1,0) 
-90 57 0
c -push_t(box1,1_1,2_1,3_1,1) player(1_1,0) 
-90 20 0
c -push_t(box1,1_1,2_1,3_1,1) at(box1,2_1,0) 
-90 38 0
c -push_t(box1,1_1,2_1,3_1,1) target(3_1) 
-90 11 0
c -push(box1,1_1,2_1,3_1,1) -in_target(box1,0) 
-88 -46 0
c -push_t(box1,1_1,2_1,3_1,1) player(2_1,1) 
-90 73 0
c -push_t(box1,1_1,2_1,3_1,1) at(box1,3_1,1) 
-90 79 0
c -push_t(box1,1_1,2_1,3_1,1) empty(1_1,1) 
-90 67 0
c -push_t(box1,1_1,2_1,3_1,1) in_target(box1,1) 
-90 62 0
c -push_t(box1,1_1,2_1,3_1,1) -empty(3_1,1) 
-90 -77 0
c -push_t(box1,1_1,2_1,3_1,1) -player(1_1,1) 
-90 -68 0
c -push_t(box1,1_1,2_1,3_1,1) -at(box1,2_1,1) 
-90 -74 0
c -push_t(box1,3_1,2_1,1_1,1) empty(1_1,0) 
-91 51 0
c -push_t(box1,3_1,2_1,1_1,1) player(3_1,0) 
-91 26 0
c -push_t(box1,3_1,2_1,1_1,1) at(box1,2_1,0) 
-91 38 0
c -push_t(box1,3_1,2_1,1_1,1) target(1_1) 
-91 5 0
c -push(box1,3_1,2_1,1_1,1) -in_target(box1,0) 
-89 -46 0
c -push_t(box1,3_1,2_1,1_1,1) player(2_1,1) 
-91 73 0
c -push_t(box1,3_1,2_1,1_1,1) at(box1,1_1,1) 
-91 69 0
c -push_t(box1,3_1,2_1,1_1,1) empty(3_1,1) 
-91 77 0
c -push_t(box1,3_1,2_1,1_1,1) in_target(box1,1) 
-91 62 0
c -push_t(box1,3_1,2_1,1_1,1) -empty(1_1,1) 
-91 -67 0
c -push_t(box1,3_1,2_1,1_1,1) -player(3_1,1) 
-91 -78 0
c -push_t(box1,3_1,2_1,1_1,1) -at(box1,2_1,1) 
-91 -74 0
c move(1_1,2_1,1) move(2_1,1_1,1) move(2_1,3_1,1) move(3_1,2_1,1) push(box1,1_1,2_1,3_1,1) push_t(box1,1_1,2_1,3_1,1) push(box1,3_1,2_1,1_1,1) push_t(box1,3_1,2_1,1_1,1) 
84 85 86 87 88 90 89 91 0
c -move(1_1,2_1,1) -move(2_1,1_1,1) 
-84 -85 0
c -move(1_1,2_1,1) -move(2_1,3_1,1) 
-84 -86 0
c -move(1_1,2_1,1) -move(3_1,2_1,1) 
-84 -87 0
c -move(1_1,2_1,1) -push(box1,1_1,2_1,3_1,1) 
-84 -88 0
c -move(1_1,2_1,1) -push_t(box1,1_1,2_1,3_1,1) 
-84 -90 0
c -move(1_1,2_1,1) -push(box1,3_1,2_1,1_1,1) 
-84 -89 0
c -move(1_1,2_1,1) -push_t(box1,3_1,2_1,1_1,1) 
-84 -91 0
c -move(2_1,1_1,1) -move(2_1,3_1,1) 
-85 -86 0
c -move(2_1,1_1,1) -move(3_1,2_1,1) 
-85 -87 0
c -move(2_1,1_1,1) -push(box1,1_1,2_1,3_1,1) 
-85 -88 0
c -move(2_1,1_1,1) -push_t(box1,1_1,2_1,3_1,1) 
-85 -90 0
c -move(2_1,1_1,1) -push(box1,3_1,2_1,1_1,1) 
-85 -89 0
c -move(2_1,1_1,1) -push_t(box1,3_1,2_1,1_1,1) 
-85 -91 0
c -move(2_1,3_1,1) -move(3_1,2_1,1) 
-86 -87 0
c -move(2_1,3_1,1) -push(box1,1_1,2_1,3_1,1) 
-86 -88 0
c -move(2_1,3_1,1) -push_t(box1,1_1,2_1,3_1,1) 
-86 -90 0
c -move(2_1,3_1,1) -push(box1,3_1,2_1,1_1,1) 
-86 -89 0
c -move(2_1,3_1,1) -push_t(box1,3_1,2_1,1_1,1) 
-86 -91 0
c -move(3_1,2_1,1) -push(box1,1_1,2_1,3_1,1) 
-87 -88 0
c -move(3_1,2_1,1) -push_t(box1,1_1,2_1,3_1,1) 
-87 -90 0
c -move(3_1,2_1,1) -push(box1,3_1,2_1,1_1,1) 
-87 -89 0
c -move(3_1,2_1,1) -push_t(box1,3_1,2_1,1_1,1) 
-87 -91 0
c -push(box1,1_1,2_1,3_1,1) -push_t(box1,1_1,2_1,3_1,1) 
-88 -90 0
c -push(box1,1_1,2_1,3_1,1) -push(box1,3_1,2_1,1_1,1) 
-88 -89 0
c -push(box1,1_1,2_1,3_1,1) -push_t(box1,3_1,2_1,1_1,1) 
-88 -91 0
c -push_t(box1,1_1,2_1,3_1,1) -push(box1,3_1,2_1,1_1,1) 
-90 -89 0
c -push_t(box1,1_1,2_1,3_1,1) -push_t(box1,3_1,2_1,1_1,1) 
-90 -91 0
c -push(box1,3_1,2_1,1_1,1) -push_t(box1,3_1,2_1,1_1,1) 
-89 -91 0

c Variables
c     1 target(0_0)
c     2 target(0_1)
c     3 target(0_2)
c     4 target(1_0)
c     5 target(1_1)
c     6 target(1_2)
c     7 target(2_0)
c     8 target(2_1)
c     9 target(2_2)
c    10 target(3_0)
c    11 target(3_1)
c    12 target(3_2)
c    13 target(4_0)
c    14 target(4_1)
c    15 target(4_2)
c    16 player(0_0,0)
c    17 player(0_1,0)
c    18 player(0_2,0)
c    19 player(1_0,0)
c    20 player(1_1,0)
c    21 player(1_2,0)
c    22 player(2_0,0)
c    23 player(2_1,0)
c    24 player(2_2,0)
c    25 player(3_0,0)
c    26 player(3_1,0)
c    27 player(3_2,0)
c    28 player(4_0,0)
c    29 player(4_1,0)
c    30 player(4_2,0)
c    31 at(box1,0_0,0)
c    32 at(box1,0_1,0)
c    33 at(box1,0_2,0)
c    34 at(box1,1_0,0)
c    35 at(box1,1_1,0)
c    36 at(box1,1_2,0)
c    37 at(box1,2_0,0)
c    38 at(box1,2_1,0)
c    39 at(box1,2_2,0)
c    40 at(box1,3_0,0)
c    41 at(box1,3_1,0)
c    42 at(box1,3_2,0)
c    43 at(box1,4_0,0)
c    44 at(box1,4_1,0)
c    45 at(box1,4_2,0)
c    46 in_target(box1,0)
c    47 empty(0_0,0)
c    48 empty(0_1,0)
c    49 empty(0_2,0)
c    50 empty(1_0,0)
c    51 empty(1_1,0)
c    52 empty(1_2,0)
c    53 empty(2_0,0)
c    54 empty(2_1,0)
c    55 empty(2_2,0)
c    56 empty(3_0,0)
c    57 empty(3_1,0)
c    58 empty(3_2,0)
c    59 empty(4_0,0)
c    60 empty(4_1,0)
c    61 empty(4_2,0)
c    62 in_target(box1,1)
c    63 empty(0_0,1)
c    64 empty(0_1,1)
c    65 empty(0_2,1)
c    66 empty(1_0,1)
c    67 empty(1_1,1)
c    68 player(1_1,1)
c    69 at(box1,1_1,1)
c    70 empty(1_2,1)
c    71 empty(2_0,1)
c    72 empty(2_1,1)
c    73 player(2_1,1)
c    74 at(box1,2_1,1)
c    75 empty(2_2,1)
c    76 empty(3_0,1)
c    77 empty(3_1,1)
c    78 player(3_1,1)
c    79 at(box1,3_1,1)
c    80 empty(3_2,1)
c    81 empty(4_0,1)
c    82 empty(4_1,1)
c    83 empty(4_2,1)
c    84 move(1_1,2_1,1)
c    85 move(2_1,1_1,1)
c    86 move(2_1,3_1,1)
c    87 move(3_1,2_1,1)
c    88 push(box1,1_1,2_1,3_1,1)
c    89 push(box1,3_1,2_1,1_1,1)
c    90 push_t(box1,1_1,2_1,3_1,1)
c    91 push_t(box1,3_1,2_1,1_1,1)
